515,-107
463,248
453,332
417,770
756,880
681,706
893,618
695,318
708,353
536,301
453,332
847,919
1020,745
893,618
586,593
646,454
664,430
705,389
769,392
761,446
705,389
664,430
628,433
624,424
504,378
524,-79
737,51
515,-107
602,-97
463,248
453,332
200,161
281,202
425,489
414,542
646,454
769,285
737,51
871,32
875,265
559,166
586,219
504,59
586,219
639,364
267,471
1095,471
1011,406
761,446
628,433
536,301
559,166
